NAME: S101D2_20
COMMENT: 1448.28
VEHICLE: 20
TIME: 347.4293
DIMENSION: 101
CAPACITY: 160
DELIVERY_SECTION
0 0 0
1 1 32
2 1 1.6
3 1 1.6
4 1 1.6
5 1 1.2
6 2 16
7 2 1.6
8 2 0.4
9 3 16
10 3 8
11 3 1.6
12 3 1.6
13 3 1.6
14 3 1.6
15 3 0.6
16 4 16
17 4 8
18 5 16
19 5 8
20 5 1.6
21 5 0.4
22 6 16
23 6 1.6
24 6 0.4
25 7 32
26 7 8
27 7 1
28 8 16
29 8 1.6
30 8 1.6
31 8 1.6
32 8 1.6
33 8 0.6
34 9 16
35 9 1.6
36 9 0.4
37 10 16
38 10 1.6
39 10 0.4
40 11 32
41 11 8
42 11 1.6
43 11 1.6
44 11 1.6
45 11 1.6
46 11 0.6
47 12 16
48 12 1.6
49 12 1.6
50 12 1.6
51 12 0.2
52 13 16
53 13 8
54 13 1.6
55 13 1.6
56 13 1.6
57 13 1.2
58 14 16
59 14 1.6
60 14 0.4
61 15 32
62 15 8
63 15 1.6
64 15 1.6
65 15 1.6
66 15 1.2
67 16 16
68 16 1.6
69 16 0.4
70 17 32
71 17 8
72 18 16
73 18 1.6
74 18 1.4
75 19 32
76 19 1.6
77 19 1.6
78 19 1.6
79 19 1.6
80 19 0.6
81 20 16
82 21 32
83 21 8
84 21 1.6
85 21 1.6
86 21 1.6
87 21 0.2
88 22 16
89 22 1.6
90 22 1.6
91 22 0.8
92 23 16
93 23 8
94 23 1.6
95 23 1.4
96 24 16
97 24 1.6
98 24 1.6
99 24 1.6
100 24 0.2
101 25 32
102 25 8
103 25 1.6
104 25 1.6
105 25 1.6
106 25 1.6
107 25 0.6
108 26 16
109 26 1.6
110 26 1.6
111 26 1.6
112 26 0.2
113 27 16
114 27 1.6
115 27 0.4
116 28 16
117 28 8
118 28 1.6
119 28 1.4
120 29 32
121 29 8
122 29 1.6
123 29 1.6
124 29 1.6
125 29 1.6
126 29 0.6
127 30 16
128 30 1.6
129 30 1.6
130 30 1.6
131 30 1.6
132 30 0.6
133 31 16
134 31 8
135 31 1.6
136 31 1.6
137 31 1.6
138 31 1.6
139 31 0.6
140 32 32
141 32 1
142 33 32
143 33 8
144 33 1.6
145 33 1.6
146 33 0.8
147 34 16
148 34 8
149 34 1
150 35 32
151 35 8
152 35 1
153 36 32
154 36 1.6
155 36 1.6
156 36 1.6
157 36 1.6
158 36 0.6
159 37 32
160 37 8
161 38 16
162 38 8
163 38 1.6
164 38 1.6
165 38 0.8
166 39 32
167 39 8
168 39 1.6
169 39 1.6
170 39 1.6
171 39 1.2
172 40 32
173 40 8
174 40 1.6
175 40 1.6
176 40 0.8
177 41 32
178 41 1.6
179 41 1.6
180 41 0.8
181 42 16
182 42 8
183 42 1.6
184 42 1.6
185 42 1.6
186 42 1.6
187 42 0.6
188 43 32
189 43 8
190 43 1.6
191 43 1.6
192 43 1.6
193 43 1.6
194 43 0.6
195 44 32
196 44 8
197 44 1.6
198 44 1.6
199 44 1.6
200 44 1.6
201 44 0.6
202 45 32
203 46 32
204 46 1.6
205 46 1.4
206 47 32
207 47 8
208 47 1.6
209 47 1.6
210 47 1.6
211 47 0.2
212 48 32
213 48 8
214 48 1.6
215 48 1.6
216 48 1.6
217 48 1.6
218 48 0.6
219 49 16
220 49 8
221 49 1.6
222 49 1.6
223 49 0.8
224 50 32
225 50 1.6
226 50 1.6
227 50 1.6
228 50 1.6
229 50 0.6
230 51 32
231 51 8
232 52 32
233 52 8
234 52 1.6
235 52 0.4
236 53 16
237 53 8
238 53 1.6
239 53 0.4
240 54 32
241 54 8
242 54 1.6
243 54 1.4
244 55 32
245 55 1.6
246 55 0.4
247 56 32
248 56 1
249 57 16
250 57 1.6
251 57 1.6
252 57 1.6
253 57 1.6
254 57 0.6
255 58 32
256 58 8
257 58 1.6
258 58 1.6
259 58 1.6
260 58 1.2
261 59 16
262 59 8
263 59 1.6
264 59 1.6
265 59 0.8
266 60 16
267 60 1.6
268 60 1.6
269 60 0.8
270 61 16
271 61 1.6
272 61 1.6
273 61 1.6
274 61 0.2
275 62 32
276 62 8
277 62 1.6
278 62 1.6
279 62 1.6
280 62 1.6
281 62 0.6
282 63 16
283 63 1.6
284 63 1.6
285 63 1.6
286 63 1.2
287 64 16
288 64 8
289 64 1
290 65 16
291 65 1.6
292 65 1.6
293 65 0.8
294 66 32
295 66 8
296 66 1.6
297 66 1.6
298 66 1.6
299 66 1.2
300 67 16
301 67 1
302 68 32
303 68 1.6
304 68 1.6
305 68 1.6
306 68 0.2
307 69 16
308 69 1.6
309 69 1.4
310 70 32
311 70 8
312 70 1
313 71 16
314 71 1.6
315 71 0.4
316 72 32
317 72 8
318 72 1.6
319 72 1.6
320 72 1.6
321 72 0.2
322 73 16
323 73 1.6
324 73 0.4
325 74 32
326 75 16
327 75 1.6
328 75 1.6
329 75 1.6
330 75 0.2
331 76 32
332 76 8
333 76 1.6
334 76 1.6
335 76 1.6
336 76 1.6
337 76 0.6
338 77 16
339 77 1.6
340 77 0.4
341 78 16
342 78 1.6
343 78 1.6
344 78 0.8
345 79 16
346 79 1.6
347 79 1.6
348 79 1.6
349 79 1.6
350 79 0.6
351 80 32
352 80 8
353 80 1.6
354 80 1.4
355 81 16
356 81 1.6
357 81 0.4
358 82 16
359 82 8
360 83 16
361 83 1.6
362 83 1.6
363 83 1.6
364 83 1.6
365 83 0.6
366 84 32
367 85 16
368 85 1.6
369 85 0.4
370 86 32
371 86 1.6
372 86 1.6
373 86 1.6
374 86 0.2
375 87 16
376 87 1.6
377 87 1.6
378 87 1.6
379 87 1.6
380 87 0.6
381 88 16
382 88 1.6
383 88 1.4
384 89 16
385 89 1.6
386 89 0.4
387 90 32
388 90 8
389 90 1.6
390 90 1.6
391 90 1.6
392 90 0.2
393 91 16
394 91 1.6
395 91 1.6
396 91 1.6
397 91 1.2
398 92 16
399 92 8
400 92 1
401 93 16
402 93 1.6
403 93 0.4
404 94 32
405 94 8
406 94 1.6
407 94 1.6
408 94 1.6
409 94 1.6
410 94 0.6
411 95 16
412 95 1.6
413 95 1.6
414 95 0.8
415 96 32
416 96 1.6
417 96 1.6
418 96 0.8
419 97 16
420 97 1.6
421 97 0.4
422 98 32
423 98 8
424 98 1.6
425 98 1.4
426 99 16
427 99 1
428 100 32
429 100 8
430 100 1.6
431 100 1.4
PICKUP_SECTION
NODE_SECTION
35 35

41 49

35 17

55 45

55 20

15 30

25 30

20 50

10 43

55 60

30 60

20 65

50 35

30 25

15 10

30  5

10 20

 5 30

20 40

15 60

45 65

45 20

45 10

55  5

65 35

65 20

45 30

35 40

41 37

64 42

40 60

31 52

35 69

53 52

65 55

63 65

 2 60

20 20

 5  5

60 12

40 25

42  7

24 12

23  3

11 14

 6 38

 2 48

 8 56

13 52
 
6 68

47 47

49 58

27 43

37 31

57 29

63 23

53 12

32 12

36 26

21 24

17 34

12 24

24 58

27 69

15 77

62 77

49 73

67  5

56 39

37 47

37 56

57 68

47 16

44 17

46 13

49 11

49 42

53 43

61 52

57 48

56 37

55 54

15 47

14 37

11 31

16 22

 4 18

28 18

26 52

26 35

31 67

15 19

22 22

18 24

26 27

25 24

22 27

25 21

19 21

20 26

18 18
DISTANCE_SECTION
DEPOT_SECTION
0
EOF